22      4       
12      11      11      10      
0       0       0       0       0       2       2       3       
3       5       1       9       9       1       6       
2       5       5       2       2       1       4       
8       5       1       2       8       2       5       11      
6       10      9       7       7       1       7       
5       4       4       7       6       2       8       11      
10      10      10      10      1       1       8       
9       10      10      3       4       2       9       14      
3       2       1       3       5       1       10      
9       2       7       10      3       1       12      
1       8       7       9       3       1       14      
2       9       9       4       7       2       13      17      
4       5       9       6       1       1       18      
1       7       5       9       5       1       15      
1       8       4       6       4       1       16      
6       7       6       9       9       1       17      
3       6       5       7       5       1       19      
8       8       5       8       5       1       21      
9       10      2       2       4       2       20      21      
9       10      5       6       3       1       22      
9       5       1       1       5       1       22      
0       0       0       0       0       0       
